c FILE /home/rafael/Documents/HappySet/MIHS/inputs/happygen/output/graph_d_regular_k7_p0.3_v50_20241127_082645.txt
c SOURCE This is a d-regular graph formed for the happy graph colouring problem.
c DESCRIPTION It was generated using the problem generator of Rhyd Lewis
c
c GRAPH STATS
c Seed                             = -1055153754
c Number of Nodes                  = 50
c Number of colours k              = 7
c Number of pre-assignments        = 15
c Degree of all vertices           = 6
c Density                          = 0.122449
c 
c The degrees of nodes 1 to 50, respectively, are as follows 
c [6, 6, 6, 6, 6, 6, 6, 6, 6, 6, 6, 6, 6, 6, 6, 6, 6, 6, 6, 6, 6, 6, 6, 6, 6, 6, 
c  6, 6, 6, 6, 6, 6, 6, 6, 6, 6, 6, 6, 6, 6, 6, 6, 6, 6, 6, 6, 6, 6, 6, 6] 
c  
p edge 50 150 7
e 1 4
e 1 6
e 1 26
e 1 28
e 1 30
e 1 34
e 2 6
e 2 8
e 2 13
e 2 19
e 2 41
e 2 47
e 3 13
e 3 21
e 3 28
e 3 39
e 3 46
e 3 47
e 4 16
e 4 26
e 4 28
e 4 36
e 4 39
e 5 9
e 5 10
e 5 14
e 5 17
e 5 40
e 5 42
e 6 11
e 6 32
e 6 41
e 6 49
e 7 22
e 7 25
e 7 29
e 7 35
e 7 39
e 7 42
e 8 14
e 8 29
e 8 31
e 8 33
e 8 46
e 9 22
e 9 27
e 9 33
e 9 45
e 9 49
e 10 14
e 10 17
e 10 22
e 10 23
e 10 24
e 11 27
e 11 30
e 11 31
e 11 37
e 11 38
e 12 24
e 12 25
e 12 31
e 12 39
e 12 40
e 12 41
e 13 33
e 13 43
e 13 44
e 13 45
e 14 18
e 14 26
e 14 29
e 15 24
e 15 27
e 15 33
e 15 35
e 15 38
e 15 43
e 16 18
e 16 20
e 16 30
e 16 49
e 16 50
e 17 23
e 17 31
e 17 45
e 17 49
e 18 29
e 18 37
e 18 43
e 18 47
e 19 21
e 19 36
e 19 37
e 19 42
e 19 43
e 20 21
e 20 32
e 20 41
e 20 49
e 20 50
e 21 30
e 21 39
e 21 44
e 22 34
e 22 38
e 22 46
e 23 24
e 23 41
e 23 44
e 23 46
e 24 36
e 24 40
e 25 32
e 25 37
e 25 38
e 25 42
e 26 40
e 26 44
e 26 45
e 27 30
e 27 33
e 27 34
e 28 34
e 28 46
e 28 48
e 29 46
e 29 47
e 30 48
e 31 35
e 31 37
e 32 33
e 32 35
e 32 40
e 34 35
e 34 48
e 35 50
e 36 42
e 36 44
e 36 47
e 37 50
e 38 42
e 38 48
e 39 48
e 40 50
e 41 43
e 43 47
e 44 45
e 45 48
e 49 50
n 1 2
n 2 4
n 3 2
n 4 2
n 15 3
n 18 7
n 21 2
n 25 1
n 29 7
n 31 6
n 34 2
n 40 5
n 41 4
n 49 5
n 50 5
